SDVRP instances/p01/p01_110_tsplib0_splitx10_0.vrp
NAME:.\SDVRP_splitx10_
BEST_KNOWN: 0
COMMENT: 0
DIMENSION: 154
CAPACITY: 1600
EDGE_WEIGHT_FORMAT: FUNCTION
EDGE_WEIGHT_TYPE: EXACT_2D
NODE_COORD_SECTION
1 0.00000 0.00000
2 7 12
3 7 12
4 7 12
5 7 12
6 7 12
7 19 9
8 19 9
9 19 9
10 19 9
11 22 24
12 22 24
13 22 24
14 -10 -14
15 -10 -14
16 10 -10
17 10 -10
18 10 -10
19 10 -10
20 10 -10
21 -9 7
22 -9 7
23 -9 7
24 -9 7
25 -9 7
26 -13 23
27 1 22
28 1 22
29 22 -7
30 22 -7
31 22 -7
32 21 -19
33 12 1
34 12 1
35 12 1
36 12 1
37 12 1
38 1 -8
39 1 -8
40 1 -8
41 1 -8
42 -25 -15
43 -18 2
44 6 -24
45 6 -24
46 6 -24
47 22 1
48 22 1
49 22 1
50 22 1
51 -3 -17
52 -3 -17
53 -13 -7
54 -17 -27
55 -17 -27
56 -17 -27
57 -17 -27
58 -17 -27
59 27 18
60 27 18
61 32 2
62 32 2
63 12 17
64 12 17
65 12 17
66 -14 17
67 -14 17
68 -14 17
69 -22 12
70 -22 12
71 -23 -2
72 -23 -2
73 -23 -2
74 -23 -2
75 -3 28
76 -3 28
77 -3 28
78 0 8
79 13 27
80 13 27
81 13 27
82 13 27
83 28 8
84 28 8
85 28 -13
86 28 -13
87 7 29
88 7 29
89 7 29
90 7 29
91 7 29
92 8 6
93 8 6
94 8 6
95 8 6
96 8 6
97 16 -30
98 16 -30
99 16 -30
100 16 -30
101 16 -30
102 31 -7
103 31 -7
104 31 -7
105 32 23
106 32 23
107 32 23
108 32 23
109 32 23
110 33 29
111 2 -18
112 2 -18
113 2 -18
114 2 -18
115 15 -5
116 29 -25
117 -25 -34
118 -25 -34
119 -25 -34
120 -25 -34
121 -25 -34
122 -20 -23
123 -20 -23
124 -9 -30
125 -9 -30
126 -25 24
127 -25 24
128 -25 24
129 0 -25
130 0 -25
131 0 -25
132 9 -30
133 9 -30
134 9 -30
135 9 -30
136 9 -30
137 2 -1
138 2 -1
139 2 -1
140 2 -1
141 -5 -8
142 -5 15
143 -5 15
144 -5 15
145 -5 15
146 -5 15
147 18 -12
148 18 -12
149 18 -12
150 18 -12
151 18 -12
152 26 -3
153 26 -3
154 26 -3
DEMAND_SECTION
1 0
2 80
3 16
4 16
5 16
6 2
7 16
8 16
9 16
10 12
11 16
12 16
13 8
14 80
15 10
16 80
17 16
18 16
19 16
20 12
21 80
22 16
23 16
24 16
25 2
26 80
27 16
28 4
29 16
30 16
31 8
32 10
33 80
34 16
35 16
36 16
37 2
38 16
39 16
40 16
41 12
42 80
43 80
44 80
45 16
46 14
47 16
48 16
49 16
50 2
51 16
52 4
53 80
54 80
55 16
56 16
57 16
58 2
59 80
60 10
61 16
62 4
63 80
64 16
65 4
66 80
67 16
68 4
69 80
70 10
71 80
72 16
73 16
74 8
75 80
76 16
77 14
78 10
79 80
80 16
81 16
82 8
83 16
84 14
85 16
86 4
87 80
88 16
89 16
90 16
91 2
92 80
93 16
94 16
95 16
96 2
97 80
98 16
99 16
100 16
101 2
102 16
103 16
104 8
105 80
106 16
107 16
108 16
109 2
110 80
111 80
112 16
113 16
114 8
115 80
116 80
117 80
118 16
119 16
120 16
121 2
122 16
123 14
124 16
125 4
126 80
127 16
128 4
129 80
130 16
131 14
132 80
133 16
134 16
135 16
136 12
137 16
138 16
139 16
140 2
141 80
142 16
143 16
144 16
145 16
146 6
147 80
148 16
149 16
150 16
151 2
152 80
153 16
154 4
DEPOT_SECTION
1
-1
EOF