SDVRP instances/p01/p01_110_tsplib0_splitx10_0.sol
153 -21 23 24 22 20 65 66 67 25 126 125 127 68 69 42 70 73 72 71 41 121 122 120 116 119 118 117 57 55 54 53 56 124 123 129 128 130 50 51 14 13 52 140 -40 39 37 38 110 111 113 112 44 45 43 134 133 132 135 131 99 96 97 98 100 115 31 84 85 101 103 102 60 61 82 83 58 59 105 106 104 107 108 109 10 12 11 79 81 80 78 90 87 89 88 86 76 74 75 27 26 143 144 145 142 141 77 -92 91 94 93 95 3 5 1 2 4 62 64 63 7 9 8 6 49 48 46 47 153 152 151 28 29 30 148 150 146 149 147 19 15 16 18 17 114 34 33 36 35 32 136 139 137 138 0 





OBJ=
459.500
BEST_KNOWN=
0.000